21° run output:
{
    "Function": "kroB750.tsp",
    "Problem dimension": [
        684,
        97,
        693,
        677,
        668,
        640,
        548,
        636,
        318,
        656,
        491,
        361,
        266,
        649,
        527,
        643,
        707,
        614,
        30,
        732,
        81,
        16,
        736,
        387,
        195,
        343,
        109,
        393,
        420,
        558,
        6,
        635,
        598,
        725,
        462,
        294,
        464,
        499,
        25,
        20,
        437,
        145,
        282,
        102,
        311,
        483,
        705,
        136,
        674,
        411,
        407,
        334,
        547,
        7,
        172,
        685,
        175,
        309,
        617,
        744,
        101,
        700,
        559,
        487,
        150,
        260,
        265,
        404,
        59,
        426,
        252,
        224,
        115,
        236,
        505,
        670,
        592,
        555,
        671,
        199,
        143,
        531,
        376,
        659,
        174,
        129,
        408,
        578,
        542,
        379,
        335,
        308,
        518,
        200,
        474,
        644,
        291,
        255,
        53,
        347,
        269,
        237,
        510,
        516,
        67,
        162,
        461,
        604,
        326,
        62,
        673,
        257,
        203,
        322,
        424,
        293,
        106,
        409,
        133,
        345,
        541,
        515,
        91,
        375,
        235,
        504,
        161,
        607,
        537,
        748,
        105,
        51,
        242,
        664,
        431,
        209,
        386,
        226,
        117,
        519,
        238,
        602,
        156,
        608,
        391,
        220,
        299,
        646,
        703,
        87,
        533,
        401,
        50,
        749,
        247,
        245,
        42,
        232,
        581,
        692,
        419,
        588,
        341,
        704,
        539,
        201,
        613,
        167,
        100,
        243,
        194,
        733,
        637,
        394,
        382,
        572,
        185,
        74,
        460,
        455,
        303,
        741,
        638,
        556,
        514,
        65,
        295,
        449,
        261,
        380,
        402,
        275,
        354,
        561,
        509,
        336,
        591,
        618,
        433,
        490,
        660,
        153,
        339,
        425,
        642,
        570,
        503,
        497,
        603,
        312,
        627,
        131,
        89,
        421,
        31,
        443,
        95,
        268,
        249,
        364,
        5,
        653,
        8,
        36,
        622,
        287,
        701,
        441,
        307,
        486,
        2,
        47,
        679,
        177,
        576,
        564,
        470,
        540,
        183,
        366,
        338,
        32,
        90,
        147,
        495,
        624,
        723,
        170,
        292,
        356,
        15,
        648,
        344,
        580,
        139,
        132,
        119,
        370,
        658,
        39,
        283,
        550,
        721,
        210,
        77,
        699,
        11,
        724,
        333,
        332,
        631,
        476,
        623,
        410,
        371,
        492,
        88,
        350,
        365,
        3,
        363,
        585,
        471,
        44,
        216,
        398,
        140,
        254,
        251,
        620,
        641,
        430,
        286,
        731,
        587,
        225,
        24,
        204,
        372,
        526,
        681,
        745,
        113,
        688,
        698,
        241,
        639,
        416,
        719,
        80,
        521,
        144,
        708,
        645,
        465,
        524,
        71,
        103,
        687,
        184,
        93,
        61,
        43,
        565,
        270,
        412,
        155,
        405,
        124,
        597,
        49,
        337,
        9,
        683,
        250,
        14,
        289,
        152,
        625,
        112,
        600,
        422,
        305,
        665,
        180,
        746,
        423,
        403,
        716,
        511,
        110,
        99,
        256,
        469,
        234,
        447,
        545,
        126,
        726,
        593,
        484,
        85,
        571,
        414,
        352,
        435,
        472,
        740,
        566,
        582,
        149,
        606,
        329,
        418,
        577,
        739,
        104,
        76,
        676,
        397,
        691,
        360,
        468,
        227,
        340,
        197,
        182,
        560,
        240,
        98,
        718,
        651,
        710,
        373,
        374,
        574,
        17,
        258,
        389,
        427,
        573,
        114,
        123,
        116,
        502,
        378,
        325,
        448,
        628,
        246,
        680,
        86,
        385,
        507,
        672,
        686,
        742,
        543,
        584,
        317,
        13,
        553,
        214,
        610,
        615,
        314,
        79,
        458,
        244,
        169,
        284,
        271,
        368,
        590,
        259,
        348,
        601,
        37,
        695,
        529,
        279,
        432,
        477,
        276,
        512,
        217,
        138,
        534,
        189,
        176,
        253,
        96,
        75,
        64,
        415,
        128,
        546,
        445,
        151,
        137,
        440,
        436,
        127,
        506,
        54,
        482,
        342,
        55,
        501,
        446,
        316,
        26,
        315,
        191,
        605,
        530,
        362,
        626,
        663,
        488,
        192,
        562,
        206,
        121,
        557,
        438,
        392,
        417,
        58,
        657,
        485,
        467,
        230,
        264,
        517,
        228,
        231,
        166,
        281,
        190,
        212,
        108,
        40,
        589,
        538,
        0,
        297,
        480,
        717,
        142,
        621,
        728,
        453,
        711,
        213,
        168,
        655,
        165,
        52,
        459,
        321,
        508,
        722,
        159,
        118,
        456,
        164,
        302,
        535,
        84,
        56,
        612,
        714,
        135,
        568,
        616,
        83,
        634,
        173,
        400,
        94,
        586,
        157,
        737,
        454,
        599,
        346,
        429,
        328,
        661,
        18,
        702,
        198,
        619,
        171,
        383,
        532,
        10,
        358,
        154,
        734,
        629,
        697,
        41,
        357,
        278,
        475,
        481,
        466,
        652,
        381,
        633,
        706,
        367,
        689,
        34,
        413,
        662,
        390,
        163,
        1,
        478,
        28,
        38,
        569,
        219,
        696,
        611,
        70,
        667,
        377,
        72,
        473,
        60,
        525,
        609,
        300,
        223,
        146,
        12,
        229,
        196,
        479,
        27,
        727,
        290,
        46,
        554,
        690,
        57,
        148,
        306,
        498,
        552,
        181,
        520,
        595,
        78,
        712,
        193,
        69,
        715,
        141,
        35,
        489,
        285,
        395,
        111,
        567,
        19,
        536,
        29,
        355,
        66,
        575,
        158,
        205,
        68,
        211,
        239,
        743,
        544,
        186,
        729,
        457,
        500,
        730,
        549,
        694,
        313,
        632,
        720,
        280,
        444,
        563,
        248,
        134,
        125,
        262,
        666,
        222,
        396,
        647,
        522,
        160,
        579,
        523,
        21,
        23,
        675,
        298,
        267,
        288,
        179,
        353,
        594,
        208,
        263,
        551,
        122,
        463,
        92,
        428,
        450,
        399,
        528,
        4,
        188,
        178,
        452,
        221,
        359,
        304,
        63,
        187,
        319,
        33,
        709,
        738,
        678,
        630,
        406,
        233,
        682,
        202,
        22,
        735,
        310,
        215,
        331,
        296,
        349,
        273,
        320,
        107,
        369,
        324,
        277,
        713,
        513,
        496,
        330,
        451,
        439,
        130,
        218,
        650,
        351,
        323,
        327,
        207,
        120,
        583,
        669,
        45,
        654,
        494,
        493,
        82,
        272,
        384,
        388,
        596,
        274,
        73,
        434,
        442,
        48,
        301,
        747
    ],
    "Global Optimum": 0,
    "Algorithm": "Genetic algorithm",
    "Parameters": {
        "population": 30,
        "offspring": 30,
        "mutation probability": 0.0013333333333333333,
        "crossover probability": 0.9
    },
    "Fitness": 948785,
    "Solution": [
        684,
        97,
        693,
        677,
        668,
        640,
        548,
        636,
        318,
        656,
        491,
        361,
        266,
        649,
        527,
        643,
        707,
        614,
        30,
        732,
        81,
        16,
        736,
        387,
        195,
        343,
        109,
        393,
        420,
        558,
        6,
        635,
        598,
        725,
        462,
        294,
        464,
        499,
        25,
        20,
        437,
        145,
        282,
        102,
        311,
        483,
        705,
        136,
        674,
        411,
        407,
        334,
        547,
        7,
        172,
        685,
        175,
        309,
        617,
        744,
        101,
        700,
        559,
        487,
        150,
        260,
        265,
        404,
        59,
        426,
        252,
        224,
        115,
        236,
        505,
        670,
        592,
        555,
        671,
        199,
        143,
        531,
        376,
        659,
        174,
        129,
        408,
        578,
        542,
        379,
        335,
        308,
        518,
        200,
        474,
        644,
        291,
        255,
        53,
        347,
        269,
        237,
        510,
        516,
        67,
        162,
        461,
        604,
        326,
        62,
        673,
        257,
        203,
        322,
        424,
        293,
        106,
        409,
        133,
        345,
        541,
        515,
        91,
        375,
        235,
        504,
        161,
        607,
        537,
        748,
        105,
        51,
        242,
        664,
        431,
        209,
        386,
        226,
        117,
        519,
        238,
        602,
        156,
        608,
        391,
        220,
        299,
        646,
        703,
        87,
        533,
        401,
        50,
        749,
        247,
        245,
        42,
        232,
        581,
        692,
        419,
        588,
        341,
        704,
        539,
        201,
        613,
        167,
        100,
        243,
        194,
        733,
        637,
        394,
        382,
        572,
        185,
        74,
        460,
        455,
        303,
        741,
        638,
        556,
        514,
        65,
        295,
        449,
        261,
        380,
        402,
        275,
        354,
        561,
        509,
        336,
        591,
        618,
        433,
        490,
        660,
        153,
        339,
        425,
        642,
        570,
        503,
        497,
        603,
        312,
        627,
        131,
        89,
        421,
        31,
        443,
        95,
        268,
        249,
        364,
        5,
        653,
        8,
        36,
        622,
        287,
        701,
        441,
        307,
        486,
        2,
        47,
        679,
        177,
        576,
        564,
        470,
        540,
        183,
        366,
        338,
        32,
        90,
        147,
        495,
        624,
        723,
        170,
        292,
        356,
        15,
        648,
        344,
        580,
        139,
        132,
        119,
        370,
        658,
        39,
        283,
        550,
        721,
        210,
        77,
        699,
        11,
        724,
        333,
        332,
        631,
        476,
        623,
        410,
        371,
        492,
        88,
        350,
        365,
        3,
        363,
        585,
        471,
        44,
        216,
        398,
        140,
        254,
        251,
        620,
        641,
        430,
        286,
        731,
        587,
        225,
        24,
        204,
        372,
        526,
        681,
        745,
        113,
        688,
        698,
        241,
        639,
        416,
        719,
        80,
        521,
        144,
        708,
        645,
        465,
        524,
        71,
        103,
        687,
        184,
        93,
        61,
        43,
        565,
        270,
        412,
        155,
        405,
        124,
        597,
        49,
        337,
        9,
        683,
        250,
        14,
        289,
        152,
        625,
        112,
        600,
        422,
        305,
        665,
        180,
        746,
        423,
        403,
        716,
        511,
        110,
        99,
        256,
        469,
        234,
        447,
        545,
        126,
        726,
        593,
        484,
        85,
        571,
        414,
        352,
        435,
        472,
        740,
        566,
        582,
        149,
        606,
        329,
        418,
        577,
        739,
        104,
        76,
        676,
        397,
        691,
        360,
        468,
        227,
        340,
        197,
        182,
        560,
        240,
        98,
        718,
        651,
        710,
        373,
        374,
        574,
        17,
        258,
        389,
        427,
        573,
        114,
        123,
        116,
        502,
        378,
        325,
        448,
        628,
        246,
        680,
        86,
        385,
        507,
        672,
        686,
        742,
        543,
        584,
        317,
        13,
        553,
        214,
        610,
        615,
        314,
        79,
        458,
        244,
        169,
        284,
        271,
        368,
        590,
        259,
        348,
        601,
        37,
        695,
        529,
        279,
        432,
        477,
        276,
        512,
        217,
        138,
        534,
        189,
        176,
        253,
        96,
        75,
        64,
        415,
        128,
        546,
        445,
        151,
        137,
        440,
        436,
        127,
        506,
        54,
        482,
        342,
        55,
        501,
        446,
        316,
        26,
        315,
        191,
        605,
        530,
        362,
        626,
        663,
        488,
        192,
        562,
        206,
        121,
        557,
        438,
        392,
        417,
        58,
        657,
        485,
        467,
        230,
        264,
        517,
        228,
        231,
        166,
        281,
        190,
        212,
        108,
        40,
        589,
        538,
        0,
        297,
        480,
        717,
        142,
        621,
        728,
        453,
        711,
        213,
        168,
        655,
        165,
        52,
        459,
        321,
        508,
        722,
        159,
        118,
        456,
        164,
        302,
        535,
        84,
        56,
        612,
        714,
        135,
        568,
        616,
        83,
        634,
        173,
        400,
        94,
        586,
        157,
        737,
        454,
        599,
        346,
        429,
        328,
        661,
        18,
        702,
        198,
        619,
        171,
        383,
        532,
        10,
        358,
        154,
        734,
        629,
        697,
        41,
        357,
        278,
        475,
        481,
        466,
        652,
        381,
        633,
        706,
        367,
        689,
        34,
        413,
        662,
        390,
        163,
        1,
        478,
        28,
        38,
        569,
        219,
        696,
        611,
        70,
        667,
        377,
        72,
        473,
        60,
        525,
        609,
        300,
        223,
        146,
        12,
        229,
        196,
        479,
        27,
        727,
        290,
        46,
        554,
        690,
        57,
        148,
        306,
        498,
        552,
        181,
        520,
        595,
        78,
        712,
        193,
        69,
        715,
        141,
        35,
        489,
        285,
        395,
        111,
        567,
        19,
        536,
        29,
        355,
        66,
        575,
        158,
        205,
        68,
        211,
        239,
        743,
        544,
        186,
        729,
        457,
        500,
        730,
        549,
        694,
        313,
        632,
        720,
        280,
        444,
        563,
        248,
        134,
        125,
        262,
        666,
        222,
        396,
        647,
        522,
        160,
        579,
        523,
        21,
        23,
        675,
        298,
        267,
        288,
        179,
        353,
        594,
        208,
        263,
        551,
        122,
        463,
        92,
        428,
        450,
        399,
        528,
        4,
        188,
        178,
        452,
        221,
        359,
        304,
        63,
        187,
        319,
        33,
        709,
        738,
        678,
        630,
        406,
        233,
        682,
        202,
        22,
        735,
        310,
        215,
        331,
        296,
        349,
        273,
        320,
        107,
        369,
        324,
        277,
        713,
        513,
        496,
        330,
        451,
        439,
        130,
        218,
        650,
        351,
        323,
        327,
        207,
        120,
        583,
        669,
        45,
        654,
        494,
        493,
        82,
        272,
        384,
        388,
        596,
        274,
        73,
        434,
        442,
        48,
        301,
        747
    ],
    "Nb of functions evaluations": 200010,
    "Computational time in seconds": 1936.7269990444183,
    "Stopping criterion in evaluations": 200000
}